(set-option :produce-models true)
(set-logic QF_UF)
(declare-fun p34() Bool)
(declare-fun p62() Bool)
(declare-fun p46() Bool)
(declare-fun p39() Bool)
(declare-fun p77() Bool)
(declare-fun p16() Bool)
(declare-fun p63() Bool)
(declare-fun p67() Bool)
(declare-fun p20() Bool)
(declare-fun p32() Bool)
(declare-fun p44() Bool)
(declare-fun p4() Bool)
(declare-fun p64() Bool)
(declare-fun p0() Bool)
(declare-fun p69() Bool)
(declare-fun p1() Bool)
(declare-fun p58() Bool)
(declare-fun p53() Bool)
(declare-fun p76() Bool)
(declare-fun p61() Bool)
(declare-fun p42() Bool)
(declare-fun p12() Bool)
(declare-fun p71() Bool)
(declare-fun p50() Bool)
(declare-fun p17() Bool)
(declare-fun p57() Bool)
(declare-fun p21() Bool)
(declare-fun p60() Bool)
(declare-fun p2() Bool)
(declare-fun p40() Bool)
(declare-fun p10() Bool)
(declare-fun p36() Bool)
(declare-fun p25() Bool)
(declare-fun p18() Bool)
(declare-fun p43() Bool)
(declare-fun p22() Bool)
(declare-fun p33() Bool)
(declare-fun p49() Bool)
(declare-fun p24() Bool)
(declare-fun p72() Bool)
(declare-fun p45() Bool)
(declare-fun p75() Bool)
(declare-fun p56() Bool)
(declare-fun p6() Bool)
(declare-fun p74() Bool)
(declare-fun p68() Bool)
(declare-fun p35() Bool)
(declare-fun p54() Bool)
(declare-fun p26() Bool)
(declare-fun p38() Bool)
(declare-fun p37() Bool)
(declare-fun p52() Bool)
(declare-fun p70() Bool)
(declare-fun p41() Bool)
(declare-fun p19() Bool)
(declare-fun p78() Bool)
(declare-fun p51() Bool)
(declare-fun p3() Bool)
(declare-fun p55() Bool)
(declare-fun p14() Bool)
(declare-fun p30() Bool)
(declare-fun p9() Bool)
(declare-fun p13() Bool)
(declare-fun p23() Bool)
(declare-fun p11() Bool)
(declare-fun p5() Bool)
(declare-fun p27() Bool)
(declare-fun p47() Bool)
(declare-fun p65() Bool)
(declare-fun p48() Bool)
(declare-fun p59() Bool)
(declare-fun p8() Bool)
(declare-fun p79() Bool)
(declare-fun p66() Bool)
(declare-fun p73() Bool)
(declare-fun p29() Bool)
(declare-fun p28() Bool)
(declare-fun p15() Bool)
(declare-fun p31() Bool)
(declare-fun p7() Bool)
(assert
(and (or (not p34) (not p62) (not p46)) (or p39 (not p77) p16) (or (not p63) (not p67) (not p20)) (or p16 (not p32) (not p44)) (or (not p4) (not p64) p0) (or p20 (not p69) p1) (or (not p44) (not p58) p53) (or (not p76) (not p61) p62) (or (not p42) (not p12) p71) (or (not p50) (not p17) p57) (or p61 p21 (not p60)) (or (not p62) (not p2) p40) (or (not p10) p4 (not p60)) (or (not p36) p32 p16) (or p25 p34 p1) (or p18 (not p17) (not p67)) (or p50 p43 (not p22)) (or p33 (not p49) p24) (or (not p67) p2 (not p20)) (or p0 p72 p67) (or (not p45) p75 (not p56)) (or p6 p24 p40) (or p53 (not p74) (not p68)) (or p53 p21 p71) (or p43 (not p42) (not p64)) (or p35 (not p54) (not p45)) (or (not p2) p26 (not p38)) (or (not p37) p45 p52) (or (not p70) p18 p0) (or p37 p41 p19) (or (not p61) (not p54) (not p71)) (or p69 p78 (not p51)) (or p21 p3 p68) (or (not p74) p44 (not p72)) (or (not p17) p55 p70) (or (not p76) p14 (not p33)) (or p6 (not p30) p40) (or (not p60) p0 (not p9)) (or p22 p53 (not p58)) (or (not p18) p68 (not p13)) (or (not p37) (not p23) p30) (or p76 p63 (not p62)) (or (not p54) (not p11) p36) (or p25 p12 p5) (or p27 (not p47) (not p1)) (or p6 p9 p71) (or p19 p14 (not p41)) (or (not p65) (not p63) p65) (or p77 (not p52) p17) (or (not p12) p48 (not p17)) (or (not p30) (not p52) (not p71)) (or p64 (not p24) (not p41)) (or p58 (not p46) (not p67)) (or (not p20) p55 (not p27)) (or p77 (not p53) p59) (or (not p70) (not p75) p60) (or p8 (not p0) p59) (or (not p37) (not p64) (not p26)) (or p64 p56 (not p36)) (or (not p23) (not p55) p77) (or (not p36) p79 p49) (or (not p22) (not p11) (not p69)) (or p41 p21 (not p14)) (or (not p57) p68 (not p10)) (or (not p44) p11 (not p22)) (or (not p46) p66 p18) (or (not p78) p74 (not p69)) (or (not p70) (not p46) (not p48)) (or p3 p32 (not p9)) (or p47 (not p73) p70) (or p69 p52 (not p29)) (or (not p21) p9 (not p62)) (or p55 p65 p50) (or p37 (not p44) p35) (or p5 (not p35) (not p19)) (or (not p25) p38 (not p34)) (or (not p42) p73 (not p18)) (or (not p52) (not p41) p3) (or (not p28) p18 p75) (or (not p19) (not p59) p40) (or p35 (not p22) p29) (or (not p23) p69 (not p58)) (or (not p25) (not p42) p30) (or (not p75) (not p8) p72) (or p40 p43 (not p45)) (or (not p28) (not p34) p65) (or p14 p11 (not p22)) (or (not p1) p61 (not p15)) (or (not p35) (not p57) (not p76)) (or (not p4) (not p54) (not p38)) (or p58 p62 (not p48)) (or (not p43) (not p49) p6) (or (not p70) (not p18) p37) (or p48 p48 (not p56)) (or p42 p65 (not p69)) (or (not p32) p36 (not p72)) (or p20 p66 (not p31)) (or p46 p60 p24) (or p34 (not p7) p30) (or (not p73) (not p46) (not p4)) (or p5 p20 p15) (or p26 (not p14) p3) (or p37 p19 p75) (or (not p64) (not p55) p11) (or (not p77) p37 p49) (or (not p25) p51 p20) (or (not p53) (not p58) p39) (or p25 (not p46) p44) (or (not p2) p0 (not p75)) (or (not p57) (not p75) (not p78)) (or p32 p74 p2) (or (not p69) (not p15) (not p36)) (or p0 (not p45) p38) (or (not p12) p75 (not p77)) (or p0 p34 (not p4)) (or (not p45) (not p69) p25) (or p67 (not p79) (not p50)) (or (not p10) p8 p37) (or (not p54) p7 (not p1)) (or p20 (not p7) (not p62)) (or (not p8) (not p18) p60) (or p13 (not p21) p44) (or (not p59) p8 p70) (or p29 p54 (not p25)) (or p39 (not p71) p39) (or (not p30) (not p6) (not p10)) (or (not p76) (not p54) (not p24)) (or (not p4) p28 (not p24)) (or p73 (not p21) p44) (or p55 p54 (not p24)) (or p24 (not p76) p28) (or p18 p55 p42) (or (not p58) (not p4) (not p54)) (or (not p74) (not p26) (not p77)) (or p32 p63 (not p47)) (or (not p16) (not p60) (not p66)) (or p52 (not p31) (not p23)) (or (not p5) (not p65) (not p45)) (or p19 p26 (not p11)) (or p37 (not p48) (not p31)) (or p0 p77 (not p8)) (or p32 p60 (not p20)) (or p43 (not p16) p59) (or (not p18) (not p73) p15) (or p48 p70 (not p25)) (or (not p55) (not p15) p56) (or p64 (not p70) (not p20)) (or (not p35) (not p59) (not p43)) (or (not p6) (not p54) (not p62)) (or (not p74) p50 p52) (or (not p64) (not p53) (not p58)) (or p40 p70 (not p20)) (or (not p34) (not p40) p74) (or (not p27) (not p9) (not p55)) (or p49 p1 p35) (or (not p10) (not p19) p19) (or p52 (not p25) p66) (or p14 (not p24) (not p68)) (or p75 (not p17) p34) (or p66 p55 (not p22)) (or p7 p62 p24) (or (not p68) (not p27) (not p44)) (or p77 (not p19) p59) (or p76 p24 p62) (or (not p14) p60 p58) (or p9 (not p26) (not p0)) (or (not p3) (not p51) (not p22)) (or p65 (not p3) (not p14)) (or (not p38) (not p11) p30) (or p69 (not p34) (not p42)) (or (not p58) (not p32) p75) (or p41 p39 (not p55)) (or (not p47) p47 p5) (or p7 (not p70) p34) (or (not p41) p3 (not p66)) (or (not p40) p4 (not p55)) (or (not p31) p12 (not p17)) (or (not p53) (not p61) (not p69)) (or (not p21) p68 (not p44)) (or p24 (not p37) (not p40)) (or (not p29) (not p75) (not p13)) (or (not p40) p29 (not p9)) (or p56 (not p2) p11) (or (not p76) (not p4) p61) (or p63 p54 (not p31)) (or p59 p46 p21) (or p70 p39 p17) (or p61 (not p52) (not p48)) (or p72 p5 p36) (or p75 (not p50) p52) (or (not p35) (not p78) (not p32)) (or p22 p64 p79) (or p58 (not p75) p47) (or p66 p24 (not p34)) (or (not p61) (not p26) p23) (or (not p67) (not p26) p44) (or (not p12) (not p41) (not p39)) (or (not p5) p9 (not p38)) (or p75 p76 p44) (or p30 p24 p76) (or (not p16) (not p70) (not p37)) (or (not p20) (not p49) p23) (or p24 p56 (not p19)) (or p50 p32 p16) (or p11 p0 (not p30)) (or p73 (not p39) (not p67)) (or (not p39) (not p28) p50) (or p17 p75 p7) (or p9 (not p10) p27) (or (not p1) (not p33) (not p66)) (or p11 p38 p23) (or p56 (not p79) (not p78)) (or (not p36) p76 p11) (or p16 (not p22) p32) (or p58 p41 p64) (or p27 (not p14) p70) (or p58 (not p24) (not p25)) (or p8 (not p32) p17) (or (not p54) p4 p46) (or p51 (not p20) (not p27)) (or (not p16) (not p39) p23) (or (not p49) (not p17) (not p6)) (or (not p33) (not p39) (not p46)) (or (not p44) p21 (not p61)) (or p46 p23 p14) (or (not p76) (not p57) p36) (or (not p19) p11 p76) (or p67 p28 (not p48)) (or (not p48) (not p7) (not p9)) (or p40 (not p19) (not p46)) (or p35 p53 p12) (or (not p69) (not p39) p55) (or p30 p58 (not p37)) (or (not p79) p60 p48) (or p23 (not p30) (not p64)) (or (not p11) (not p7) (not p53)) (or p65 (not p29) (not p15)) (or (not p34) p74 (not p4)) (or p64 p25 p56) (or (not p42) p12 p76) (or p58 p14 p66) (or p8 (not p54) p9) (or (not p77) p57 p34) (or p47 p71 p7) (or p72 p18 p19) (or p78 p25 p55) (or (not p50) (not p7) (not p70)) (or (not p32) (not p49) p42) (or p62 p26 p35) (or (not p63) p42 p38) (or p62 p69 (not p37)) (or (not p70) p64 (not p65)) (or p7 (not p74) p40) (or p28 p32 (not p5)) (or p16 p74 p23) (or (not p79) p1 (not p79)) (or p31 (not p30) (not p49)) (or p78 p58 p0) (or p12 (not p51) (not p54)) (or p40 p72 p69) (or p39 p50 (not p27)) (or p64 (not p68) p34) (or (not p7) (not p26) p68) (or (not p64) (not p76) p43) (or (not p60) (not p5) (not p60)) (or p49 p61 (not p66)) (or (not p35) p29 (not p76)) (or (not p48) (not p38) (not p51)) (or (not p28) p2 p36) (or p30 (not p76) p65) (or p63 p5 p48) (or p15 p34 p1) (or (not p14) p36 (not p3)) (or p38 (not p73) p56) (or p40 (not p57) p7) (or p58 p70 (not p63)) (or p21 p12 (not p35)) (or p14 (not p16) p23) (or p61 (not p7) p73) (or (not p24) p71 p5) (or p8 (not p72) p10) (or (not p44) p57 (not p50)) (or (not p42) p39 (not p66)) (or p4 p67 p46) (or p73 (not p11) (not p3)) (or (not p24) p11 (not p46)) (or p60 (not p51) (not p24)) (or p12 (not p64) (not p46)) (or p24 (not p28) (not p66)) (or (not p38) (not p55) p17) (or (not p4) (not p14) (not p66)) (or p63 (not p58) p24) (or p44 (not p69) p11) (or (not p71) p24 p46) (or p35 p24 p77) (or p76 (not p66) p52) (or (not p53) (not p2) p70) (or (not p71) p1 p39) (or p57 (not p3) p69) (or (not p46) (not p60) (not p54)) (or (not p24) p10 (not p24)) (or (not p73) (not p8) p21) (or (not p2) p77 (not p37)) (or p43 (not p73) (not p2)) (or (not p64) p22 (not p25)) (or (not p70) (not p22) (not p58)) (or (not p39) p51 (not p4)) (or p20 (not p58) p36) (or p69 (not p4) p37) (or p60 (not p57) (not p79)) (or p38 p53 (not p5)) (or (not p15) p45 (not p67)) (or (not p52) p15 (not p25)) (or p42 (not p57) p0) (or (not p6) (not p20) (not p33)) (or (not p40) (not p25) (not p30)) (or (not p3) p5 (not p20)) (or (not p17) (not p78) p76) (or p33 p29 (not p29)) (or (not p79) (not p13) p72) (or (not p55) p46 p47) (or (not p78) (not p11) (not p66)) (or (not p54) (not p56) (not p42)) (or (not p35) (not p47) (not p21)) (or (not p27) p13 p51) (or p59 (not p12) (not p79)) (or (not p3) p10 (not p6)) (or (not p53) (not p39) (not p15)) (or (not p39) (not p29) (not p30)) (or p44 (not p20) p44) (or (not p53) (not p75) (not p22)) (or (not p0) (not p51) (not p74)) (or p50 p34 p41) (or p15 (not p10) p12) (or (not p53) p76 p68) (or (not p28) p45 (not p43)) (or p46 p17 (not p64)))
)
(check-sat)
(get-model)
